tsp_instances/TSP20/instance43.tsp
NODE_COORD_SECTION
0 49 172
1 84 27
2 146 47
3 20 153
4 10 88
5 134 185
6 163 98
7 50 94
8 170 65
9 129 128
10 176 85
11 64 5
12 166 144
13 71 62
14 42 53
15 150 63
16 97 131
17 52 149
18 43 31
19 21 141
