tsp_instances/TSP20/instance43.opt.tour
TOUR_SECTION
1
4
20
5
8
14
15
19
12
2
3
16
9
11
7
13
6
10
17
18
-1